>> Start of run:  25-JUN-2024  17:04:25

reinit: Reading from standard input
reinit: Dumped input in INPUT_TMP.45173
************************** Dump of input data file ****************************
SystemName      Si001 + H2
SystemLabel     Si001+H2
# Species and atoms
NumberOfSpecies        2
NumberOfAtoms          38
%block ChemicalSpeciesLabel
  1   1  H
  2  14  Si
%endblock ChemicalSpeciesLabel
%block AtomicMass
 1  2.013
%endblock AtomicMass
# General Variables
MeshCutoff           50. Ry        # Mesh cutoff. real space mes
XC.functional GGA
XC.Authors  PBE
Spinpolarized .false.
SolutionMethod              diagon        # OrderN or Diagon
# SCF options
MaxSCFIterations      300           # Maximum number of SCF iter
DM.MixingWeight       0.25           # New DM amount for next SCF cycle
DM.Tolerance          1.d-4         # Tolerance in maximum difference
                                    # between input and output DM
DM.UseSaveDM          true          # to use continuation files
DM.MixSCF1            true
DM.NumberPulay         4
# MD options
MD.TypeofRun   Anneal
MD.InitialTimeStep  1
MD.FinalTimeStep   100
MD.LengthTimeStep  2.0 fs
MD.AnnealOption   Temperature
MD.TargetTemperature  300.0 K
MD.TauRelax  50.0 fs
MD.UseSaveXV   .true.
WriteMDhistory    .true.
%block GeometryConstraints
        position  from   19  to  38
%endblock GeometryConstraints
# Atomic coordinates
LatticeConstant         1.91587 Ang
%block LatticeVectors
 4.0     0.0     0.0
 0.0     4.0     0.0
 0.0     0.0     8.0
%endblock LatticeVectors
AtomicCoordinatesFormat    Bohr
%block AtomicCoordinatesAndAtomicSpecies
      11.449096152       3.620202345      -8.313070747        1  H
      13.106542549       3.621016654      -8.325506604        1  H
       9.548438948       3.618923362     -16.541210979        2  Si
      13.817205862       3.620847822     -15.309180773        2  Si
       9.528270466      10.866602791     -16.580589107        2  Si
      13.790382977      10.846154693     -15.308839631        2  Si
       7.406101538      -0.000108928     -18.056395328        2  Si
      14.268039181      -0.000697920     -17.990731589        2  Si
       7.400674278       7.240493241     -18.092233975        2  Si
      14.268278001       7.238006697     -17.983063045        2  Si
       3.571414424      -0.000007639     -20.399498936        2  Si
      10.883283639      -0.000633692     -20.931428915        2  Si
       3.573258284       7.243442738     -20.425789208        2  Si
      10.889439123       7.235737400     -20.912814093        2  Si
       3.622183349       3.623006627     -23.077357499        2  Si
      10.864199345       3.618406638     -23.384919566        2  Si
       3.620283904      10.861372263     -23.080457914        2  Si
      10.865877628      10.862592010     -23.385099171        2  Si
       7.238876595       3.619448691     -25.736778053        2  Si
      14.477753190       3.619448691     -25.736778053        2  Si
       7.238012990      10.856486582     -25.737501819        2  Si
      14.482369793      10.860400206     -25.737284500        2  Si
       7.238876595       0.000000000     -28.310480236        2  Si
      14.477753190       0.000000000     -28.310480236        2  Si
       7.236705299       7.237017104     -28.310807159        2  Si
      14.474107907       7.237017104     -28.310778813        2  Si
       3.619448691       0.000000000     -30.884157853        2  Si
      10.858325286       0.000000000     -30.884157853        2  Si
       3.619424125       7.237026553     -30.883126062        2  Si
      10.866139307       7.237026553     -30.883137400        2  Si
       3.619535619       2.027521982     -32.725963147        1  H
       3.619537508      -2.027482298     -32.725980154        1  H
      10.858183557       2.026529876     -32.729474259        1  H
      10.858183557      -2.026503419     -32.729461031        1  H
       3.619509162       9.284967034     -32.733493708        1  H
       3.621468809       5.196956784     -32.733510716        1  H
      10.866137417       9.275867999     -32.720738052        1  H
      10.862221903       5.200167430     -32.736386880        1  H
%endblock AtomicCoordinatesAndAtomicSpecies
# Basis set
PAO.BasisType    split
PAO.BasisSize    SZ
PAO.EnergyShift  0.25 eV
PAO.NewSplitCode
PAO.FixSplitTable
************************** End of input data file *****************************

reinit: -----------------------------------------------------------------------
reinit: System Name: Si001 + H2
reinit: -----------------------------------------------------------------------
reinit: System Label: Si001+H2
reinit: -----------------------------------------------------------------------

initatom: Reading input for the pseudopotentials and atomic orbitals ----------
Species number:   1 Atomic number:    1 Label: H
Species number:   2 Atomic number:   14 Label: Si

 ---- Processing specs for species: H
Ground state valence configuration:   1s01
Reading pseudopotential information in formatted form from H.psf

 ---- Processing specs for species: Si
Ground state valence configuration:   3s02  3p02
Reading pseudopotential information in formatted form from Si.psf
remass: Read atomic mass for species    1 as      2.01300

---- Pseudopotential check for  H

Pseudized shells:
1s( 1.00) rc: 1.25
2p( 0.00) rc: 1.25
3d( 0.00) rc: 1.25
4f( 0.00) rc: 1.25
Valence configuration for ps generation: (assumed as above)

---- Pseudopotential check for Si

Pseudized shells:
3s( 2.00) rc: 1.89
3p( 2.00) rc: 1.89
3d( 0.00) rc: 1.89
4f( 0.00) rc: 1.89
Valence configuration for ps generation: (assumed as above)
For H, standard SIESTA heuristics set lmxkb to 1
 (one more than the basis l, including polarization orbitals).
Use PS.lmax or PS.KBprojectors blocks to override.
For Si, standard SIESTA heuristics set lmxkb to 2
 (one more than the basis l, including polarization orbitals).
Use PS.lmax or PS.KBprojectors blocks to override.

<basis_specs>
H                    Z=   1    Mass=  2.0130        Charge= 0.17977+309
Lmxo=0 Lmxkb= 1    BasisType=split      Semic=F
L=0  Nsemic=0  Cnfigmx=1
          i=1  nzeta=1  polorb=0  (1s)
            splnorm:   0.15000
               vcte:    0.0000
               rinn:    0.0000
               qcoe:    0.0000
               qyuk:    0.0000
               qwid:   0.10000E-01
                rcs:    0.0000
            lambdas:    1.0000
L=0  Nkbl=1  erefs: 0.17977+309
L=1  Nkbl=1  erefs: 0.17977+309
</basis_specs>

atom: Called for H                     (Z =   1)

read_vps: Pseudopotential generation method:
read_vps: ATM3      Troullier-Martins
Valence charge in pseudo generation:    1.00000

xc_check: Exchange-correlation functional:
xc_check: GGA Perdew, Burke & Ernzerhof 1996
V l=0 = -2*Zval/r beyond r=  1.2343
V l=1 = -2*Zval/r beyond r=  1.2189
All V_l potentials equal beyond r=  1.2343
This should be close to max(r_c) in ps generation
All pots = -2*Zval/r beyond r=  1.2343
Using small-core scheme (local charge) for Vlocal

VLOCAL_FROM_CHLOCAL: 99.0% of the norm of Vloc inside     28.493 Ry
VLOCAL_FROM_CHLOCAL: 99.9% of the norm of Vloc inside     64.935 Ry
atom: Maximum radius forchloc:    1.45251
atom: Maximum radius for r*vlocal+2*Zval:    1.31405

KBgen: Kleinman-Bylander projectors:
GHOST: No ghost state for L =  0
   l= 0   rc=  1.364359   el= -0.477200   Ekb= -2.021939   kbcos= -0.344793
GHOST: No ghost state for L =  1
   l= 1   rc=  1.434438   el=  0.001076   Ekb= -0.443447   kbcos= -0.022843

KBgen: Total number of Kleinman-Bylander projectors:   4
atom: -------------------------------------------------------------------------

atom: SANKEY-TYPE ORBITALS:

SPLIT: Orbitals with angular momentum L= 0

SPLIT: Basis orbitals for state 1s

SPLIT: PAO cut-off radius determined from an
SPLIT: energy shift=  0.018374 Ry

   izeta = 1
                 lambda =    1.000000
                     rc =    4.828263
                 energy =   -0.460497
                kinetic =    0.968123
    potential(screened) =   -1.428620
       potential(ionic) =   -1.956017
atom: Total number of Sankey-type orbitals:  1

atm_pop: Valence configuration (for local Pseudopot. screening):
 1s( 1.00)
Vna: chval, zval:    1.00000   1.00000

Vna:  Cut-off radius for the neutral-atom potential:   4.828263

atom: _________________________________________________________________________

<basis_specs>
Si                   Z=  14    Mass=  28.090        Charge= 0.17977+309
Lmxo=1 Lmxkb= 2    BasisType=split      Semic=F
L=0  Nsemic=0  Cnfigmx=3
          i=1  nzeta=1  polorb=0  (3s)
            splnorm:   0.15000
               vcte:    0.0000
               rinn:    0.0000
               qcoe:    0.0000
               qyuk:    0.0000
               qwid:   0.10000E-01
                rcs:    0.0000
            lambdas:    1.0000
L=1  Nsemic=0  Cnfigmx=3
          i=1  nzeta=1  polorb=0  (3p)
            splnorm:   0.15000
               vcte:    0.0000
               rinn:    0.0000
               qcoe:    0.0000
               qyuk:    0.0000
               qwid:   0.10000E-01
                rcs:    0.0000
            lambdas:    1.0000
L=0  Nkbl=1  erefs: 0.17977+309
L=1  Nkbl=1  erefs: 0.17977+309
L=2  Nkbl=1  erefs: 0.17977+309
</basis_specs>

atom: Called for Si                    (Z =  14)

read_vps: Pseudopotential generation method:
read_vps: ATM3      Troullier-Martins
Valence charge in pseudo generation:    4.00000

read_vps: Pseudopotential includes a core correction:
read_vps: Pseudo-core for xc-correction

xc_check: Exchange-correlation functional:
xc_check: GGA Perdew, Burke & Ernzerhof 1996
V l=0 = -2*Zval/r beyond r=  2.1670
V l=1 = -2*Zval/r beyond r=  2.1670
V l=2 = -2*Zval/r beyond r=  2.1670
All V_l potentials equal beyond r=  1.8652
This should be close to max(r_c) in ps generation
All pots = -2*Zval/r beyond r=  2.1670
Using small-core scheme (local charge) for Vlocal

VLOCAL_FROM_CHLOCAL: 99.0% of the norm of Vloc inside     12.478 Ry
VLOCAL_FROM_CHLOCAL: 99.9% of the norm of Vloc inside     28.437 Ry
atom: Maximum radius forchloc:    2.22190
atom: Maximum radius for r*vlocal+2*Zval:    2.06134

KBgen: Kleinman-Bylander projectors:
GHOST: No ghost state for L =  0
   l= 0   rc=  2.249851   el= -0.791461   Ekb=  5.194896   kbcos=  0.308693
GHOST: No ghost state for L =  1
   l= 1   rc=  2.455599   el= -0.300634   Ekb=  2.050084   kbcos=  0.295081
GHOST: No ghost state for L =  2
   l= 2   rc=  2.549439   el=  0.001958   Ekb= -2.458411   kbcos= -0.044844

KBgen: Total number of Kleinman-Bylander projectors:   9
atom: -------------------------------------------------------------------------

atom: SANKEY-TYPE ORBITALS:

[...]

SPLIT: Basis orbitals for state 3s

[...]

   izeta = 1
                 lambda =    1.000000
                     rc =    5.007352
                 energy =   -0.772756
                kinetic =    0.573193
    potential(screened) =   -1.345950
       potential(ionic) =   -3.772893

SPLIT: Orbitals with angular momentum L= 1

SPLIT: Basis orbitals for state 3p

SPLIT: PAO cut-off radius determined from an
SPLIT: energy shift=  0.018374 Ry

   izeta = 1
[...]
siesta: Eharris =     -3297.500115
siesta: Etot    =     -3321.986546
siesta: FreeEng =     -3321.986546

SCF Convergence by DM+H criterion
max |DM_out - DM_in|         :     0.0000776624
max |H_out - H_in|      (eV) :     0.0004018108
SCF cycle converged after 12 iterations

Using DM_out to compute the final energy and forces
 E_bs from EDM:  -1182.5475235843871
No. of atoms with KB's overlaping orbs in proc 0. Max # of overlaps:      38     105

siesta: E_KS(eV) =            -3326.8676

siesta: E_KS - E_eggbox =     -3326.8676

siesta: Atomic forces (eV/Ang):
   Tot    0.068832   -0.028366   -0.096613
   Max    2.407471
   Res    0.824262    sqrt( Sum f_i^2 / 3N )
   Max    0.704056    constrained

Stress tensor Voigt[x,y,z,yz,xz,xy] (kbar):      -85.91     -157.31      -64.10       -0.20        3.32        0.07
(Free)E + p*V (eV/cell)    -3269.3157
Target enthalpy (eV/cell)    -3326.8676

siesta: Stress tensor (static) (eV/Ang**3):
        -0.053617    0.000044    0.002072
         0.000044   -0.098184   -0.000123
         0.002072   -0.000123   -0.033726

siesta: Pressure (static):         99.08341435  kBar

siesta: Stress tensor (total) (eV/Ang**3):
        -0.053618    0.000044    0.002072
         0.000044   -0.098184   -0.000123
         0.002072   -0.000123   -0.040009

siesta: Pressure (total):        102.43928296  kBar
 Anneal: Kinetic Energy=   0.20936708487032918
 Anneal: Velocity scale factor =   0.98450823367277829

siesta: Temp_ion =    1256.536 K

[...]

outcell: Cell vector modules (Ang)   :    7.663480    7.663480   15.326960
outcell: Cell angles (23,13,12) (deg):     90.0000     90.0000     90.0000
outcell: Cell volume (Ang**3)        :    900.1359
Gamma-point calculation with interaction between periodic images
Some features might not work optimally:
e.g. DM initialization from atomic data
<dSpData1D:S at geom step 2
  <sparsity:sparsity for geom step 2
    nrows_g=122 nrows=122 sparsity=.9242 nnzs=13756, refcount: 7>
  <dData1D:(new from dSpData1D) n=13756, refcount: 1>
refcount: 1>
new_DM -- step:     2
Re-using DM from previous geometries...
Number of DMs in history: 1
 DM extrapolation coefficients:
1   1.00000
New DM after history re-use:
<dSpData2D:SpM extrapolated using coords
  <sparsity:sparsity for geom step 2
    nrows_g=122 nrows=122 sparsity=.9242 nnzs=13756, refcount: 9>
  <dData2D:(temp array for extrapolation) n=13756 m=1, refcount: 1>
refcount: 1>
No. of atoms with KB's overlaping orbs in proc 0. Max # of overlaps:      38     105

[...]

        iscf     Eharris(eV)        E_KS(eV)     FreeEng(eV)     dDmax    Ef(eV) dHmax(eV)
   scf:    1    -3326.878649    -3326.859984    -3326.859985  0.016189 -4.179730  0.074231
   scf:    2    -3326.825352    -3326.849356    -3326.849357  0.014060 -4.170210  0.244155
   scf:    3    -3326.861759    -3326.860481    -3326.860482  0.012310 -4.176421  0.018914
   scf:    4    -3326.860499    -3326.860496    -3326.860497  0.000529 -4.176064  0.009606
   scf:    5    -3326.860498    -3326.860497    -3326.860498  0.000376 -4.175792  0.004497
   scf:    6    -3326.860498    -3326.860498    -3326.860499  0.000107 -4.175692  0.001859
   scf:    7    -3326.860498    -3326.860498    -3326.860499  0.000029 -4.175688  0.000978

[...]

                        Begin MD step =    100

[...]

outcell: Cell vector modules (Ang)   :    7.663480    7.663480   15.326960
outcell: Cell angles (23,13,12) (deg):     90.0000     90.0000     90.0000
outcell: Cell volume (Ang**3)        :    900.1359
Gamma-point calculation with interaction between periodic images
Some features might not work optimally:
e.g. DM initialization from atomic data
<dSpData1D:S at geom step 100
  <sparsity:sparsity for geom step 100
    nrows_g=122 nrows=122 sparsity=.8972 nnzs=13354, refcount: 7>
  <dData1D:(new from dSpData1D) n=13354, refcount: 1>
refcount: 1>
new_DM -- step:   100
Re-using DM from previous geometries...
Number of DMs in history: 1
 DM extrapolation coefficients:
1   1.00000
New DM after history re-use:
<dSpData2D:SpM extrapolated using coords
  <sparsity:sparsity for geom step 100
    nrows_g=122 nrows=122 sparsity=.8972 nnzs=13354, refcount: 9>
  <dData2D:(temp array for extrapolation) n=13354 m=1, refcount: 1>
refcount: 1>
No. of atoms with KB's overlaping orbs in proc 0. Max # of overlaps:      38     100

InitMesh: MESH = 36 x 36 x 72 = 93312
InitMesh: Mesh cutoff (required, used) =    50.000    60.989 Ry
New grid distribution [1]: sub = 2

        iscf     Eharris(eV)        E_KS(eV)     FreeEng(eV)     dDmax    Ef(eV) dHmax(eV)
   scf:    1    -3328.336341    -3328.418365    -3328.418365  0.061789 -4.091038  0.758473
   scf:    2    -3323.262239    -3326.823142    -3326.823142  0.099734 -4.169061  3.086166
   scf:    3    -3328.711530    -3328.480531    -3328.480531  0.083898 -4.149006  0.086176
   scf:    4    -3328.481347    -3328.481058    -3328.481058  0.001955 -4.146912  0.028772
   scf:    5    -3328.481256    -3328.481169    -3328.481169  0.001362 -4.145940  0.014483
   scf:    6    -3328.481220    -3328.481196    -3328.481196  0.000791 -4.145992  0.006433
   scf:    7    -3328.481210    -3328.481204    -3328.481204  0.000602 -4.146058  0.000937
   scf:    8    -3328.481205    -3328.481205    -3328.481205  0.000110 -4.146135  0.000760
   scf:    9    -3328.481205    -3328.481205    -3328.481205  0.000033 -4.146148  0.000330

SCF Convergence by DM+H criterion
max |DM_out - DM_in|         :     0.0000334620
max |H_out - H_in|      (eV) :     0.0003296916
SCF cycle converged after 9 iterations

Using DM_out to compute the final energy and forces
 E_bs from EDM:  -1160.8162237258225
No. of atoms with KB's overlaping orbs in proc 0. Max # of overlaps:      38     100

siesta: E_KS(eV) =            -3328.4812

siesta: Atomic forces (eV/Ang):
   Tot    0.090323    0.278588   -0.174060
   Max    2.406478
   Res    0.849696    sqrt( Sum f_i^2 / 3N )
   Max    1.250273    constrained

Stress tensor Voigt[x,y,z,yz,xz,xy] (kbar):      -66.62     -114.27      -13.04       -7.88       -6.38       -0.92
(Free)E + p*V (eV/cell)    -3292.1646
Target enthalpy (eV/cell)    -3328.4812

siesta: Stress tensor (static) (eV/Ang**3):
        -0.040264   -0.001003   -0.003900
        -0.001003   -0.070585   -0.004649
        -0.003900   -0.004649   -0.007258

siesta: Pressure (static):         63.07684613  kBar

siesta: Stress tensor (total) (eV/Ang**3):
        -0.041580   -0.000573   -0.003982
        -0.000573   -0.071318   -0.004916
        -0.003982   -0.004916   -0.008139

siesta: Pressure (total):         64.64165982  kBar
 Anneal: Kinetic Energy=   0.10320922600397442
 Anneal: Velocity scale factor =   0.98933178284897083

siesta: Temp_ion =     625.504 K

outcell: Unit cell vectors (Ang):
        7.663480    0.000000    0.000000
        0.000000    7.663480    0.000000
        0.000000    0.000000   15.326960

outcell: Cell vector modules (Ang)   :    7.663480    7.663480   15.326960
outcell: Cell angles (23,13,12) (deg):     90.0000     90.0000     90.0000
outcell: Cell volume (Ang**3)        :    900.1359

siesta: Program's energy decomposition (eV):
siesta: Ebs     =     -1160.825513
siesta: Eions   =      6039.663214
siesta: Ena     =      2149.643928
siesta: Ekin    =      1223.269926
siesta: Enl     =       463.718616
siesta: Eso     =         0.000000
siesta: Edftu   =         0.000000
siesta: DEna    =        99.169558
siesta: DUscf   =         3.753610
siesta: DUext   =         0.000000
siesta: Ex      =     -1084.040023
siesta: Ec      =      -144.333605
siesta: Exc     =     -1228.373629
siesta: eta*DQ  =         0.000000
siesta: Emadel  =         0.000000
siesta: Emeta   =         0.000000
siesta: Emolmec =         0.000000
siesta: Ekinion =         1.374442
siesta: Eharris =     -3327.106762
siesta: Etot    =     -3327.106762
siesta: FreeEng =     -3327.106762

siesta: Final energy (eV):
siesta:  Band Struct. =   -1160.825513
siesta:       Kinetic =    1223.269926
siesta:       Hartree =    2572.230500
siesta:       Edftu   =       0.000000
siesta:       Eso     =       0.000000
siesta:    Ext. field =       0.000000
siesta:         Exch. =   -1084.040023
siesta:         Corr. =    -144.333605
siesta:   Exch.-corr. =   -1228.373629
siesta:  Ion-electron =   -6229.845432
siesta:       Ion-ion =     334.237429
siesta:       Ekinion =       1.374442
siesta:         Total =   -3327.106762
siesta:         Fermi =      -4.146148

siesta: Atomic forces (eV/Ang):
siesta:      1   -0.163554   -0.210877    0.221294
siesta:      2    0.531314    0.979558   -0.769550
siesta:      3    0.128495    0.301541   -0.268197
siesta:      4    0.147505    0.269783   -0.980412
siesta:      5    0.244038   -1.250273    0.120517
siesta:      6    1.042946    0.188842    0.726858
siesta:      7   -0.532774    1.215317   -0.271267
siesta:      8    0.189948    0.216822    0.392550
siesta:      9   -0.459407   -0.553276   -0.789210
siesta:     10    0.176665   -0.339980    0.265128
siesta:     11   -0.358068   -0.074274    0.001133
siesta:     12   -0.745546   -0.540203    0.102518
siesta:     13   -0.017016    0.175551   -0.032575
siesta:     14   -0.308942    0.228172   -0.277201
siesta:     15   -0.104795    0.077874    0.385636
siesta:     16   -0.004442   -0.259211    0.042015
siesta:     17   -0.195870    0.165761    0.421795
siesta:     18    0.234793    0.117600   -0.121883
siesta:     19    0.012718   -0.353724    0.589112
siesta:     20    0.356123   -0.322761    0.503765
siesta:     21   -0.318799    0.102291    0.456303
siesta:     22    0.143475    0.100623    0.768847
siesta:     23   -0.020306   -0.001780   -0.009202
siesta:     24    0.170239    0.017566   -0.015090
siesta:     25    0.057790    0.080233    0.036258
siesta:     26    0.070138    0.091051    0.140668
siesta:     27   -0.050710   -0.052667    2.406478
siesta:     28   -0.000326    0.020752    2.393034
siesta:     29   -0.056414   -0.115082    2.134357
siesta:     30   -0.095662   -0.060484    2.243222
siesta:     31    0.013577    2.077877   -1.441138
siesta:     32    0.008251   -2.057108   -1.449138
siesta:     33    0.005720    2.060367   -1.426365
siesta:     34   -0.006186   -2.077780   -1.434623
siesta:     35    0.013018    1.883030   -1.220347
siesta:     36   -0.015806   -1.927230   -1.329211
siesta:     37    0.001874    2.046066   -1.383344
siesta:     38   -0.003679   -1.941381   -1.306797
siesta: ----------------------------------------
siesta:    Tot    0.090323    0.278588   -0.174060

siesta: Constrained forces (eV/Ang):
siesta:      1   -0.163554   -0.210877    0.221294
siesta:      2    0.531314    0.979558   -0.769550
siesta:      3    0.128495    0.301541   -0.268197
siesta:      4    0.147505    0.269783   -0.980412
siesta:      5    0.244038   -1.250273    0.120517
siesta:      6    1.042946    0.188842    0.726858
siesta:      7   -0.532774    1.215317   -0.271267
siesta:      8    0.189948    0.216822    0.392550
siesta:      9   -0.459407   -0.553276   -0.789210
siesta:     10    0.176665   -0.339980    0.265128
siesta:     11   -0.358068   -0.074274    0.001133
siesta:     12   -0.745546   -0.540203    0.102518
siesta:     13   -0.017016    0.175551   -0.032575
siesta:     14   -0.308942    0.228172   -0.277201
siesta:     15   -0.104795    0.077874    0.385636
siesta:     16   -0.004442   -0.259211    0.042015
siesta:     17   -0.195870    0.165761    0.421795
siesta:     18    0.234793    0.117600   -0.121883
siesta:     19    0.000000    0.000000    0.000000
siesta:     20    0.000000    0.000000    0.000000
siesta:     21    0.000000    0.000000    0.000000
siesta:     22    0.000000    0.000000    0.000000
siesta:     23    0.000000    0.000000    0.000000
siesta:     24    0.000000    0.000000    0.000000
siesta:     25    0.000000    0.000000    0.000000
siesta:     26    0.000000    0.000000    0.000000
siesta:     27    0.000000    0.000000    0.000000
siesta:     28    0.000000    0.000000    0.000000
siesta:     29    0.000000    0.000000    0.000000
siesta:     30    0.000000    0.000000    0.000000
siesta:     31    0.000000    0.000000    0.000000
siesta:     32    0.000000    0.000000    0.000000
siesta:     33    0.000000    0.000000    0.000000
siesta:     34    0.000000    0.000000    0.000000
siesta:     35    0.000000    0.000000    0.000000
siesta:     36    0.000000    0.000000    0.000000
siesta:     37    0.000000    0.000000    0.000000
siesta:     38    0.000000    0.000000    0.000000
siesta: ----------------------------------------
siesta:  Tot   -0.194711    0.708727   -0.830850

siesta: Stress tensor (static) (eV/Ang**3):
siesta:    -0.040264   -0.001003   -0.003900
siesta:    -0.001003   -0.070585   -0.004649
siesta:    -0.003900   -0.004649   -0.007258

siesta: Cell volume =        900.135895 Ang**3

siesta: Pressure (static):
siesta:                Solid            Molecule  Units
siesta:           0.00042878          0.00031151  Ry/Bohr**3
siesta:           0.03936905          0.02860160  eV/Ang**3
siesta:          63.07684613         45.82531829  kBar
(Free)E+ p_basis*V_orbitals  =       -3319.535277
(Free)Eharris+ p_basis*V_orbitals  =       -3319.535277

cite: Please see "Si001+H2.bib" for an exhaustive BiBTeX file.
cite: Please clearly indicate Siesta version in published work: school--MaX-1.3.0-1
cite: This calculation has made use of the following articles
cite: which are encouraged to be cited in a published work.
        Primary SIESTA paper
          DOI: www.doi.org/10.1088/0953-8984/14/11/302

Routine            Calls   Time/call    Tot.time        %
siesta                 1     439.091     439.091   100.00
Setup                  1       0.148       0.148     0.03
bands                  1       0.000       0.000     0.00
KSV_init               1       0.000       0.000     0.00
IterGeom             100       4.389     438.941    99.97
geom_init            100       0.637      63.670    14.50
state_init           100       0.017       1.661     0.38
hsparse              100       0.009       0.862     0.20
overlap              100       0.004       0.422     0.10
Setup_H0             100       0.353      35.260     8.03
naefs                200       0.001       0.100     0.02
dnaefs               100       0.000       0.024     0.01
two-body             100       0.000       0.001     0.00
MolMec               200       0.000       0.001     0.00
kinefsm              200       0.004       0.884     0.20
nlefsm               200       0.038       7.700     1.75
DHSCF_Init           100       0.324      32.436     7.39
DHSCF1               100       0.008       0.778     0.18
INITMESH             100       0.000       0.001     0.00
DHSCF2               100       0.317      31.656     7.21
REMESH               100       0.016       1.638     0.37
REORD               4010       0.000       0.823     0.19
PHION                100       0.219      21.924     4.99
COMM_BSC            5320       0.000       0.885     0.20
POISON              1355       0.014      19.443     4.43
fft                 2710       0.006      16.968     3.86
setup_H             1155       0.271     313.203    71.33
DHSCF               1255       0.304     381.671    86.92
DHSCF3              1255       0.271     340.209    77.48
rhoofd              1255       0.035      43.500     9.91
XC                  1255       0.189     236.713    53.91
GXC-CellXC          1255       0.188     236.101    53.77
gridxc@cellXC       1255       0.188     236.083    53.77
vmat                1255       0.031      39.396     8.97
IterSCF             1055       0.284     300.040    68.33
compute_dm          1055       0.012      12.702     2.89
diagon              1055       0.012      12.625     2.88
r-eigvec            1055       0.007       7.854     1.79
r-buildHS           1055       0.000       0.103     0.02
rdiag               1055       0.007       7.747     1.76
rdiag1              1055       0.000       0.328     0.07
rdiag2              1055       0.001       1.061     0.24
rdiag3              1055       0.005       5.170     1.18
rdiag4              1055       0.001       1.119     0.25
r-buildD            1055       0.004       4.587     1.04
MIXER                955       0.000       0.271     0.06
PostSCF              100       0.750      75.002    17.08
DHSCF4               100       0.415      41.459     9.44
dfscf                100       0.333      33.285     7.58
overfsm              100       0.005       0.465     0.11
state_analysis       100       0.001       0.073     0.02
siesta_move          100       0.001       0.115     0.03
Analysis               1       0.002       0.002     0.00
optical                1       0.000       0.000     0.00

>> End of run:  25-JUN-2024  17:11:46
Job completed